7973
29600
7418
25651
21814
20088
20879
2641
23067
16343
23762
3636
32644
16609
9225
20084
24128
23225
10864
10167
1652
12114
28028
32059
23579
9742
795
171
4935
19533
2994
4952
7655
23559
30151
25642
603
15547
6450
20718
16986
17495
20711
7932
25901
28353
24507
5610
16836
25871
25783
13583
27700
32658
25381
20947
10355
16533
31301
24491
28401
11314
2465
18239
6320
2305
12657
32387
19874
1855
25908
17796
25380
24833
4447
31665
13154
29584
861
1293
8795
7751
18811
23782
9465
24894
24897
30033
17964
10470
19251
8573
9536
7854
27229
15111
21369
18133
28024
614
